cliques=[{0,1,5,8},{0,1,5,8},{2,7,8,12,25,28},{3,12,13,27},{4,5,21,22,26},{0,1,5,8},{6,11,24,27},{2,7,8,12,25,28},{0,1,5,8},{0,9,13,20},{9,10,11,17},{9,10,11,17},{2,7,8,12,25,28},{0,9,13,20},{2,14,21,24,29},{1,15,19},{3,16,17,18,29},{3,16,17,18,29},{3,16,17,18,29},{1,15,19},{0,9,13,20},{4,5,21,22,26},{4,5,21,22,26},{6,19,22,23,28},{2,14,21,24,29},{2,7,8,12,25,28},{4,5,21,22,26},{3,12,13,27},{2,7,8,12,25,28},{3,16,17,18,29},{7,15,16,26,30}];
nr_cliques=31;
